(set-info :source |printed by MathSAT|)
(declare-fun |!{$(in_main#0)<CELLCOUNT_3>}| () Int)
(declare-fun |!{$(in_main#0)<CELLCOUNT_3>}.next| () Int)
(declare-fun |!{$(in_main#0)<MINVAL>}| () Int)
(declare-fun |!{$(in_main#0)<MINVAL>}.next| () Int)
(declare-fun |!{$(in_main#0)<i>}| () Int)
(declare-fun |!{$(in_main#0)<i>}.next| () Int)
(declare-fun |!{$(in_main#0)<k>}| () Int)
(declare-fun |!{$(in_main#0)<k>}.next| () Int)
(declare-fun |!{$(in_main#0)<volArray.1>}| () (Array Int Int))
(declare-fun |!{$(in_main#0)<volArray.1>}.next| () (Array Int Int))
(declare-fun |!{$(in_main#0)<$(in___VERIFIER_nondet_int#0)<h#<__VERIFIER_nondet_int.return>>>}| () Int)
(declare-fun !pc () Int)
(declare-fun !pc.next () Int)
(declare-fun |%{$(in_main#0)<MINVAL>}#1| () Int)
(declare-fun |%{$(in_main#0)<k>}#1| () Int)
(declare-fun |%{$(in_main#0)<volArray.1>}#1| () (Array Int Int))
(declare-fun |%{$(in_main#0)<volArray.1>}#2| () (Array Int Int))
(declare-fun |%{$(in_main#0)<volArray.1>}#4| () (Array Int Int))
(declare-fun |%{$(in_main#0)<volArray.1>}#6| () (Array Int Int))
(define-fun .def_28 () Int (! !pc :next !pc.next))
(define-fun .def_31 () Bool (! (= .def_28 2) :init true))
(define-fun .def_199 () Bool (= .def_28 37))
(define-fun .def_111 () Bool (= !pc.next 82))
(define-fun .def_202 () Bool (and .def_111 .def_199))
(define-fun .def_195 () Bool (= |!{$(in_main#0)<k>}.next| 0))
(define-fun .def_10 () Int (! |!{$(in_main#0)<MINVAL>}| :next |!{$(in_main#0)<MINVAL>}.next|))
(define-fun .def_82 () Bool (= .def_10 |!{$(in_main#0)<MINVAL>}.next|))
(define-fun .def_8 () Int (! |!{$(in_main#0)<CELLCOUNT_3>}| :next |!{$(in_main#0)<CELLCOUNT_3>}.next|))
(define-fun .def_80 () Bool (= .def_8 |!{$(in_main#0)<CELLCOUNT_3>}.next|))
(define-fun .def_91 () Bool (and .def_80 .def_82))
(define-fun .def_12 () Int (! |!{$(in_main#0)<i>}| :next |!{$(in_main#0)<i>}.next|))
(define-fun .def_84 () Bool (= .def_12 |!{$(in_main#0)<i>}.next|))
(define-fun .def_92 () Bool (and .def_84 .def_91))
(define-fun .def_196 () Bool (and .def_92 .def_195))
(define-fun .def_16 () (Array Int Int) (! |!{$(in_main#0)<volArray.1>}| :next |!{$(in_main#0)<volArray.1>}.next|))
(define-fun .def_88 () Bool (= .def_16 |!{$(in_main#0)<volArray.1>}.next|))
(define-fun .def_197 () Bool (and .def_88 .def_196))
(define-fun .def_122 () Bool (<= .def_12 .def_8))
(define-fun .def_183 () Bool (not .def_122))
(define-fun .def_198 () Bool (and .def_183 .def_197))
(define-fun .def_203 () Bool (and .def_198 .def_202))
(define-fun .def_61 () Bool (= !pc.next 37))
(define-fun .def_200 () Bool (and .def_61 .def_199))
(define-fun .def_189 () Bool (= |!{$(in_main#0)<volArray.1>}.next| |%{$(in_main#0)<volArray.1>}#6|))
(define-fun .def_184 () Int (* (- 1) |!{$(in_main#0)<i>}.next|))
(define-fun .def_185 () Int (+ .def_12 .def_184))
(define-fun .def_186 () Bool (= .def_185 (- 1)))
(define-fun .def_187 () Bool (and .def_91 .def_186))
(define-fun .def_14 () Int (! |!{$(in_main#0)<k>}| :next |!{$(in_main#0)<k>}.next|))
(define-fun .def_86 () Bool (= .def_14 |!{$(in_main#0)<k>}.next|))
(define-fun .def_188 () Bool (and .def_86 .def_187))
(define-fun .def_190 () Bool (and .def_188 .def_189))
(define-fun .def_125 () Int (* 3 .def_12))
(define-fun .def_162 () Int (+ .def_125 (- 1)))
(define-fun .def_165 () (Array Int Int) (store |%{$(in_main#0)<volArray.1>}#4| .def_162 0))
(define-fun .def_175 () Bool (= .def_165 |%{$(in_main#0)<volArray.1>}#6|))
(define-fun .def_160 () Bool (<= .def_10 1))
(define-fun .def_164 () Bool (not .def_160))
(define-fun .def_177 () Bool (and .def_164 .def_175))
(define-fun .def_163 () (Array Int Int) (store |%{$(in_main#0)<volArray.1>}#4| .def_162 1))
(define-fun .def_174 () Bool (= .def_163 |%{$(in_main#0)<volArray.1>}#6|))
(define-fun .def_176 () Bool (and .def_160 .def_174))
(define-fun .def_178 () Bool (or .def_176 .def_177))
(define-fun .def_191 () Bool (and .def_178 .def_190))
(define-fun .def_143 () Int (+ .def_125 (- 2)))
(define-fun .def_146 () (Array Int Int) (store |%{$(in_main#0)<volArray.1>}#2| .def_143 0))
(define-fun .def_154 () Bool (= .def_146 |%{$(in_main#0)<volArray.1>}#4|))
(define-fun .def_141 () Bool (<= .def_10 3))
(define-fun .def_145 () Bool (not .def_141))
(define-fun .def_156 () Bool (and .def_145 .def_154))
(define-fun .def_144 () (Array Int Int) (store |%{$(in_main#0)<volArray.1>}#2| .def_143 3))
(define-fun .def_153 () Bool (= .def_144 |%{$(in_main#0)<volArray.1>}#4|))
(define-fun .def_155 () Bool (and .def_141 .def_153))
(define-fun .def_157 () Bool (or .def_155 .def_156))
(define-fun .def_192 () Bool (and .def_157 .def_191))
(define-fun .def_127 () Int (+ .def_125 (- 3)))
(define-fun .def_130 () (Array Int Int) (store .def_16 .def_127 0))
(define-fun .def_136 () Bool (= .def_130 |%{$(in_main#0)<volArray.1>}#2|))
(define-fun .def_124 () Bool (<= .def_10 7))
(define-fun .def_129 () Bool (not .def_124))
(define-fun .def_138 () Bool (and .def_129 .def_136))
(define-fun .def_128 () (Array Int Int) (store .def_16 .def_127 7))
(define-fun .def_135 () Bool (= .def_128 |%{$(in_main#0)<volArray.1>}#2|))
(define-fun .def_137 () Bool (and .def_124 .def_135))
(define-fun .def_139 () Bool (or .def_137 .def_138))
(define-fun .def_193 () Bool (and .def_139 .def_192))
(define-fun .def_194 () Bool (and .def_122 .def_193))
(define-fun .def_201 () Bool (and .def_194 .def_200))
(define-fun .def_204 () Bool (or .def_201 .def_203))
(define-fun .def_115 () Bool (= !pc.next 0))
(define-fun .def_106 () Bool (= .def_28 82))
(define-fun .def_116 () Bool (and .def_106 .def_115))
(define-fun .def_66 () Int (* (- 1) .def_14))
(define-fun .def_64 () Int (* 3 .def_8))
(define-fun .def_67 () Int (+ .def_64 .def_66))
(define-fun .def_68 () Bool (<= .def_67 0))
(define-fun .def_100 () Bool (and .def_68 .def_80))
(define-fun .def_101 () Bool (and .def_82 .def_100))
(define-fun .def_102 () Bool (and .def_84 .def_101))
(define-fun .def_103 () Bool (and .def_86 .def_102))
(define-fun .def_104 () Bool (and .def_88 .def_103))
(define-fun .def_117 () Bool (and .def_104 .def_116))
(define-fun .def_112 () Bool (and .def_106 .def_111))
(define-fun .def_93 () Int (* (- 1) |!{$(in_main#0)<k>}.next|))
(define-fun .def_94 () Int (+ .def_14 .def_93))
(define-fun .def_95 () Bool (= .def_94 (- 1)))
(define-fun .def_96 () Bool (and .def_92 .def_95))
(define-fun .def_97 () Bool (and .def_88 .def_96))
(define-fun .def_70 () Int (select .def_16 .def_14))
(define-fun .def_72 () Bool (= .def_70 0))
(define-fun .def_71 () Bool (<= .def_10 .def_70))
(define-fun .def_73 () Bool (or .def_71 .def_72))
(define-fun .def_74 () Int (ite .def_73 1 0))
(define-fun .def_75 () Bool (= .def_74 0))
(define-fun .def_76 () Bool (not .def_75))
(define-fun .def_98 () Bool (and .def_76 .def_97))
(define-fun .def_69 () Bool (not .def_68))
(define-fun .def_99 () Bool (and .def_69 .def_98))
(define-fun .def_113 () Bool (and .def_99 .def_112))
(define-fun .def_108 () Bool (= !pc.next 102))
(define-fun .def_109 () Bool (and .def_106 .def_108))
(define-fun .def_81 () Bool (and .def_75 .def_80))
(define-fun .def_83 () Bool (and .def_81 .def_82))
(define-fun .def_85 () Bool (and .def_83 .def_84))
(define-fun .def_87 () Bool (and .def_85 .def_86))
(define-fun .def_89 () Bool (and .def_87 .def_88))
(define-fun .def_90 () Bool (and .def_69 .def_89))
(define-fun .def_110 () Bool (and .def_90 .def_109))
(define-fun .def_114 () Bool (or .def_110 .def_113))
(define-fun .def_118 () Bool (or .def_114 .def_117))
(define-fun .def_62 () Bool (and .def_31 .def_61))
(define-fun .def_57 () Bool (= |!{$(in_main#0)<volArray.1>}.next| |%{$(in_main#0)<volArray.1>}#1|))
(define-fun .def_55 () Bool (= |!{$(in_main#0)<k>}.next| |%{$(in_main#0)<k>}#1|))
(define-fun .def_53 () Bool (= |!{$(in_main#0)<i>}.next| 1))
(define-fun .def_51 () Bool (= |!{$(in_main#0)<MINVAL>}.next| |%{$(in_main#0)<MINVAL>}#1|))
(define-fun .def_50 () Bool (= |!{$(in_main#0)<CELLCOUNT_3>}.next| |!{$(in_main#0)<$(in___VERIFIER_nondet_int#0)<h#<__VERIFIER_nondet_int.return>>>}|))
(define-fun .def_52 () Bool (and .def_50 .def_51))
(define-fun .def_54 () Bool (and .def_52 .def_53))
(define-fun .def_56 () Bool (and .def_54 .def_55))
(define-fun .def_58 () Bool (and .def_56 .def_57))
(define-fun .def_45 () Bool (<= |!{$(in_main#0)<$(in___VERIFIER_nondet_int#0)<h#<__VERIFIER_nondet_int.return>>>}| 0))
(define-fun .def_46 () Bool (not .def_45))
(define-fun .def_47 () Int (ite .def_46 1 0))
(define-fun .def_48 () Bool (= .def_47 0))
(define-fun .def_49 () Bool (not .def_48))
(define-fun .def_59 () Bool (and .def_49 .def_58))
(define-fun .def_63 () Bool (and .def_59 .def_62))
(define-fun .def_119 () Bool (or .def_63 .def_118))
(define-fun .def_205 () Bool (! (or .def_119 .def_204) :trans true))
(define-fun .def_120 () Bool (= .def_28 102))
(define-fun .def_206 () Bool (! (not .def_120) :invar-property 0 :invar-property-name ||))
(assert true)
